60
1 0 12
2 0 7
2 1 7
3 0 20
3 1 7
3 2 16
4 0 13
4 1 3
4 2 10
4 3 13
5 0 17
5 1 17
5 2 7
5 3 11
5 4 23
6 0 23
6 1 13
6 2 22
6 3 23
6 4 9
6 5 24
7 0 12
7 1 24
7 2 23
7 3 22
7 4 13
7 5 24
7 6 5
8 0 20
8 1 21
8 2 12
8 3 2
8 4 16
8 5 19
8 6 10
8 7 6
9 0 14
9 1 17
9 2 17
9 3 17
9 4 2
9 5 25
9 6 6
9 7 12
9 8 25
10 0 13
10 1 24
10 2 1
10 3 19
10 4 19
10 5 14
10 6 22
10 7 9
10 8 20
10 9 5
11 0 11
11 1 23
11 2 18
11 3 23
11 4 19
11 5 23
11 6 13
11 7 18
11 8 14
11 9 23
11 10 8
12 0 17
12 1 20
12 2 3
12 3 5
12 4 12
12 5 24
12 6 16
12 7 16
12 8 17
12 9 19
12 10 25
12 11 20
13 0 2
13 1 1
13 2 7
13 3 6
13 4 2
13 5 11
13 6 21
13 7 1
13 8 1
13 9 6
13 10 1
13 11 9
13 12 13
14 0 10
14 1 11
14 2 15
14 3 11
14 4 18
14 5 4
14 6 23
14 7 11
14 8 5
14 9 14
14 10 25
14 11 9
14 12 19
14 13 14
15 0 18
15 1 18
15 2 4
15 3 18
15 4 24
15 5 18
15 6 8
15 7 10
15 8 22
15 9 12
15 10 18
15 11 14
15 12 18
15 13 9
15 14 3
16 0 22
16 1 4
16 2 5
16 3 7
16 4 7
16 5 17
16 6 23
16 7 16
16 8 23
16 9 5
16 10 1
16 11 15
16 12 18
16 13 3
16 14 2
16 15 22
17 0 9
17 1 18
17 2 9
17 3 21
17 4 15
17 5 7
17 6 8
17 7 19
17 8 15
17 9 14
17 10 10
17 11 25
17 12 5
17 13 5
17 14 25
17 15 20
17 16 8
18 0 18
18 1 15
18 2 4
18 3 10
18 4 12
18 5 7
18 6 1
18 7 6
18 8 9
18 9 15
18 10 23
18 11 6
18 12 2
18 13 3
18 14 3
18 15 23
18 16 14
18 17 20
19 0 16
19 1 9
19 2 18
19 3 2
19 4 22
19 5 25
19 6 6
19 7 6
19 8 8
19 9 12
19 10 25
19 11 13
19 12 6
19 13 1
19 14 17
19 15 10
19 16 15
19 17 16
19 18 1
20 0 5
20 1 6
20 2 1
20 3 13
20 4 13
20 5 21
20 6 6
20 7 1
20 8 8
20 9 12
20 10 12
20 11 23
20 12 2
20 13 10
20 14 2
20 15 5
20 16 13
20 17 22
20 18 3
20 19 9
21 0 10
21 1 14
21 2 3
21 3 18
21 4 15
21 5 15
21 6 9
21 7 23
21 8 18
21 9 1
21 10 8
21 11 24
21 12 10
21 13 11
21 14 25
21 15 19
21 16 6
21 17 2
21 18 25
21 19 23
21 20 19
22 0 11
22 1 25
22 2 4
22 3 13
22 4 20
22 5 12
22 6 18
22 7 5
22 8 23
22 9 12
22 10 25
22 11 7
22 12 18
22 13 4
22 14 8
22 15 24
22 16 12
22 17 17
22 18 17
22 19 4
22 20 3
22 21 21
23 0 10
23 1 16
23 2 18
23 3 4
23 4 8
23 5 21
23 6 9
23 7 16
23 8 14
23 9 2
23 10 22
23 11 25
23 12 15
23 13 15
23 14 20
23 15 22
23 16 11
23 17 6
23 18 6
23 19 6
23 20 21
23 21 15
23 22 25
24 0 21
24 1 7
24 2 19
24 3 6
24 4 7
24 5 16
24 6 25
24 7 15
24 8 12
24 9 8
24 10 24
24 11 11
24 12 14
24 13 19
24 14 21
24 15 22
24 16 16
24 17 21
24 18 13
24 19 10
24 20 5
24 21 18
24 22 14
24 23 16
25 0 15
25 1 23
25 2 5
25 3 5
25 4 24
25 5 15
25 6 10
25 7 22
25 8 5
25 9 18
25 10 14
25 11 20
25 12 23
25 13 7
25 14 5
25 15 17
25 16 23
25 17 15
25 18 19
25 19 4
25 20 21
25 21 3
25 22 14
25 23 2
25 24 17
26 0 22
26 1 7
26 2 12
26 3 3
26 4 6
26 5 25
26 6 2
26 7 21
26 8 5
26 9 13
26 10 17
26 11 3
26 12 24
26 13 10
26 14 13
26 15 16
26 16 15
26 17 16
26 18 3
26 19 14
26 20 21
26 21 25
26 22 6
26 23 23
26 24 9
26 25 1
27 0 25
27 1 2
27 2 25
27 3 3
27 4 5
27 5 4
27 6 7
27 7 6
27 8 14
27 9 18
27 10 5
27 11 13
27 12 12
27 13 5
27 14 2
27 15 9
27 16 24
27 17 22
27 18 19
27 19 22
27 20 15
27 21 20
27 22 22
27 23 24
27 24 5
27 25 22
27 26 13
28 0 10
28 1 19
28 2 2
28 3 20
28 4 10
28 5 15
28 6 3
28 7 22
28 8 20
28 9 1
28 10 25
28 11 3
28 12 19
28 13 6
28 14 3
28 15 8
28 16 13
28 17 25
28 18 8
28 19 4
28 20 4
28 21 4
28 22 17
28 23 7
28 24 4
28 25 18
28 26 23
28 27 13
29 0 16
29 1 8
29 2 1
29 3 20
29 4 24
29 5 14
29 6 8
29 7 15
29 8 13
29 9 10
29 10 16
29 11 3
29 12 22
29 13 13
29 14 2
29 15 4
29 16 3
29 17 11
29 18 7
29 19 24
29 20 18
29 21 20
29 22 17
29 23 24
29 24 5
29 25 2
29 26 23
29 27 7
29 28 9
30 0 12
30 1 18
30 2 23
30 3 15
30 4 1
30 5 11
30 6 8
30 7 12
30 8 3
30 9 20
30 10 3
30 11 20
30 12 19
30 13 13
30 14 3
30 15 8
30 16 11
30 17 2
30 18 2
30 19 9
30 20 12
30 21 12
30 22 11
30 23 22
30 24 3
30 25 2
30 26 7
30 27 11
30 28 17
30 29 15
31 0 5
31 1 2
31 2 16
31 3 25
31 4 21
31 5 10
31 6 14
31 7 2
31 8 7
31 9 14
31 10 1
31 11 4
31 12 7
31 13 4
31 14 3
31 15 12
31 16 15
31 17 5
31 18 24
31 19 1
31 20 13
31 21 21
31 22 10
31 23 6
31 24 1
31 25 8
31 26 12
31 27 11
31 28 3
31 29 2
31 30 24
32 0 25
32 1 7
32 2 24
32 3 4
32 4 8
32 5 15
32 6 15
32 7 18
32 8 12
32 9 9
32 10 9
32 11 6
32 12 17
32 13 24
32 14 13
32 15 5
32 16 1
32 17 17
32 18 15
32 19 13
32 20 3
32 21 9
32 22 24
32 23 24
32 24 19
32 25 8
32 26 22
32 27 19
32 28 9
32 29 1
32 30 8
32 31 7
33 0 9
33 1 19
33 2 10
33 3 15
33 4 13
33 5 9
33 6 19
33 7 6
33 8 5
33 9 5
33 10 2
33 11 5
33 12 14
33 13 3
33 14 15
33 15 2
33 16 19
33 17 1
33 18 5
33 19 6
33 20 4
33 21 19
33 22 17
33 23 22
33 24 17
33 25 3
33 26 6
33 27 12
33 28 20
33 29 2
33 30 18
33 31 13
33 32 10
34 0 1
34 1 4
34 2 25
34 3 13
34 4 4
34 5 20
34 6 21
34 7 17
34 8 5
34 9 23
34 10 24
34 11 16
34 12 21
34 13 12
34 14 9
34 15 6
34 16 25
34 17 21
34 18 19
34 19 7
34 20 9
34 21 9
34 22 23
34 23 17
34 24 19
34 25 20
34 26 22
34 27 20
34 28 6
34 29 8
34 30 3
34 31 4
34 32 19
34 33 4
35 0 8
35 1 24
35 2 25
35 3 21
35 4 12
35 5 14
35 6 23
35 7 9
35 8 12
35 9 7
35 10 16
35 11 7
35 12 10
35 13 16
35 14 22
35 15 6
35 16 18
35 17 19
35 18 13
35 19 7
35 20 4
35 21 5
35 22 8
35 23 5
35 24 2
35 25 1
35 26 8
35 27 21
35 28 9
35 29 13
35 30 2
35 31 23
35 32 8
35 33 20
35 34 7
36 0 20
36 1 8
36 2 16
36 3 5
36 4 3
36 5 17
36 6 18
36 7 11
36 8 23
36 9 10
36 10 6
36 11 23
36 12 19
36 13 16
36 14 12
36 15 7
36 16 9
36 17 1
36 18 2
36 19 16
36 20 2
36 21 7
36 22 14
36 23 5
36 24 16
36 25 9
36 26 24
36 27 17
36 28 10
36 29 23
36 30 1
36 31 16
36 32 25
36 33 2
36 34 12
36 35 5
37 0 18
37 1 12
37 2 22
37 3 24
37 4 15
37 5 15
37 6 8
37 7 15
37 8 22
37 9 9
37 10 16
37 11 18
37 12 21
37 13 13
37 14 4
37 15 13
37 16 17
37 17 21
37 18 10
37 19 1
37 20 5
37 21 12
37 22 2
37 23 3
37 24 14
37 25 7
37 26 7
37 27 7
37 28 22
37 29 2
37 30 22
37 31 16
37 32 25
37 33 5
37 34 2
37 35 15
37 36 14
38 0 9
38 1 15
38 2 18
38 3 24
38 4 22
38 5 11
38 6 25
38 7 19
38 8 9
38 9 25
38 10 23
38 11 14
38 12 13
38 13 5
38 14 12
38 15 24
38 16 6
38 17 12
38 18 19
38 19 1
38 20 22
38 21 12
38 22 4
38 23 18
38 24 12
38 25 20
38 26 24
38 27 1
38 28 15
38 29 14
38 30 21
38 31 18
38 32 10
38 33 25
38 34 15
38 35 20
38 36 19
38 37 18
39 0 15
39 1 24
39 2 2
39 3 12
39 4 3
39 5 2
39 6 14
39 7 25
39 8 15
39 9 20
39 10 15
39 11 4
39 12 3
39 13 21
39 14 22
39 15 14
39 16 25
39 17 4
39 18 9
39 19 20
39 20 14
39 21 14
39 22 24
39 23 6
39 24 7
39 25 8
39 26 25
39 27 9
39 28 5
39 29 12
39 30 5
39 31 18
39 32 8
39 33 8
39 34 9
39 35 13
39 36 18
39 37 7
39 38 22
40 0 19
40 1 5
40 2 18
40 3 2
40 4 8
40 5 22
40 6 23
40 7 1
40 8 2
40 9 14
40 10 22
40 11 22
40 12 19
40 13 17
40 14 19
40 15 9
40 16 7
40 17 19
40 18 16
40 19 24
40 20 24
40 21 7
40 22 21
40 23 3
40 24 12
40 25 16
40 26 20
40 27 25
40 28 18
40 29 1
40 30 11
40 31 5
40 32 1
40 33 25
40 34 16
40 35 22
40 36 24
40 37 5
40 38 24
40 39 1
41 0 22
41 1 19
41 2 8
41 3 13
41 4 15
41 5 22
41 6 23
41 7 20
41 8 20
41 9 15
41 10 14
41 11 24
41 12 5
41 13 16
41 14 5
41 15 13
41 16 19
41 17 18
41 18 19
41 19 2
41 20 24
41 21 3
41 22 17
41 23 8
41 24 18
41 25 19
41 26 22
41 27 5
41 28 16
41 29 18
41 30 21
41 31 14
41 32 18
41 33 20
41 34 10
41 35 2
41 36 23
41 37 25
41 38 23
41 39 7
41 40 15
42 0 18
42 1 8
42 2 16
42 3 9
42 4 1
42 5 1
42 6 9
42 7 13
42 8 16
42 9 24
42 10 7
42 11 3
42 12 22
42 13 17
42 14 2
42 15 14
42 16 9
42 17 22
42 18 3
42 19 25
42 20 20
42 21 12
42 22 13
42 23 25
42 24 10
42 25 25
42 26 2
42 27 13
42 28 9
42 29 4
42 30 2
42 31 16
42 32 21
42 33 1
42 34 18
42 35 4
42 36 17
42 37 14
42 38 22
42 39 18
42 40 12
42 41 21
43 0 22
43 1 17
43 2 10
43 3 9
43 4 17
43 5 24
43 6 1
43 7 24
43 8 1
43 9 12
43 10 16
43 11 11
43 12 3
43 13 10
43 14 23
43 15 16
43 16 17
43 17 6
43 18 24
43 19 25
43 20 20
43 21 22
43 22 14
43 23 12
43 24 5
43 25 12
43 26 4
43 27 14
43 28 21
43 29 22
43 30 15
43 31 13
43 32 24
43 33 12
43 34 21
43 35 13
43 36 17
43 37 15
43 38 14
43 39 20
43 40 15
43 41 1
43 42 12
44 0 12
44 1 1
44 2 9
44 3 10
44 4 8
44 5 22
44 6 13
44 7 15
44 8 12
44 9 17
44 10 20
44 11 13
44 12 19
44 13 12
44 14 24
44 15 14
44 16 20
44 17 11
44 18 18
44 19 16
44 20 6
44 21 14
44 22 7
44 23 22
44 24 9
44 25 10
44 26 23
44 27 8
44 28 5
44 29 1
44 30 18
44 31 18
44 32 9
44 33 15
44 34 2
44 35 22
44 36 1
44 37 20
44 38 2
44 39 25
44 40 2
44 41 12
44 42 4
44 43 15
45 0 20
45 1 16
45 2 16
45 3 22
45 4 21
45 5 18
45 6 22
45 7 21
45 8 3
45 9 22
45 10 9
45 11 17
45 12 10
45 13 20
45 14 3
45 15 12
45 16 18
45 17 6
45 18 5
45 19 2
45 20 9
45 21 1
45 22 22
45 23 15
45 24 9
45 25 19
45 26 15
45 27 1
45 28 3
45 29 23
45 30 13
45 31 4
45 32 4
45 33 8
45 34 17
45 35 23
45 36 16
45 37 12
45 38 14
45 39 2
45 40 17
45 41 9
45 42 10
45 43 1
45 44 22
46 0 20
46 1 10
46 2 5
46 3 9
46 4 21
46 5 20
46 6 18
46 7 2
46 8 10
46 9 23
46 10 21
46 11 7
46 12 10
46 13 6
46 14 21
46 15 19
46 16 17
46 17 3
46 18 23
46 19 16
46 20 7
46 21 25
46 22 14
46 23 9
46 24 16
46 25 5
46 26 25
46 27 18
46 28 23
46 29 22
46 30 18
46 31 15
46 32 11
46 33 1
46 34 20
46 35 4
46 36 11
46 37 19
46 38 14
46 39 25
46 40 23
46 41 1
46 42 12
46 43 19
46 44 22
46 45 13
47 0 24
47 1 9
47 2 17
47 3 7
47 4 12
47 5 25
47 6 3
47 7 24
47 8 21
47 9 17
47 10 9
47 11 25
47 12 9
47 13 20
47 14 1
47 15 22
47 16 9
47 17 13
47 18 22
47 19 17
47 20 21
47 21 21
47 22 23
47 23 2
47 24 5
47 25 3
47 26 4
47 27 3
47 28 21
47 29 9
47 30 25
47 31 20
47 32 14
47 33 6
47 34 25
47 35 5
47 36 5
47 37 11
47 38 19
47 39 24
47 40 8
47 41 20
47 42 25
47 43 20
47 44 24
47 45 24
47 46 23
48 0 19
48 1 22
48 2 7
48 3 21
48 4 6
48 5 6
48 6 16
48 7 6
48 8 6
48 9 5
48 10 17
48 11 25
48 12 25
48 13 25
48 14 24
48 15 12
48 16 25
48 17 12
48 18 11
48 19 7
48 20 16
48 21 12
48 22 11
48 23 12
48 24 1
48 25 23
48 26 25
48 27 14
48 28 14
48 29 23
48 30 7
48 31 16
48 32 17
48 33 11
48 34 2
48 35 10
48 36 12
48 37 15
48 38 17
48 39 25
48 40 17
48 41 8
48 42 19
48 43 25
48 44 23
48 45 25
48 46 10
48 47 24
49 0 7
49 1 13
49 2 5
49 3 20
49 4 13
49 5 20
49 6 9
49 7 1
49 8 19
49 9 9
49 10 3
49 11 17
49 12 1
49 13 21
49 14 19
49 15 12
49 16 10
49 17 18
49 18 6
49 19 12
49 20 15
49 21 7
49 22 21
49 23 5
49 24 13
49 25 12
49 26 2
49 27 10
49 28 10
49 29 18
49 30 4
49 31 3
49 32 17
49 33 13
49 34 18
49 35 15
49 36 13
49 37 3
49 38 24
49 39 24
49 40 14
49 41 5
49 42 12
49 43 20
49 44 13
49 45 23
49 46 18
49 47 20
49 48 22
50 0 1
50 1 19
50 2 21
50 3 24
50 4 11
50 5 10
50 6 19
50 7 9
50 8 2
50 9 9
50 10 9
50 11 16
50 12 11
50 13 23
50 14 3
50 15 16
50 16 14
50 17 22
50 18 16
50 19 22
50 20 18
50 21 9
50 22 11
50 23 17
50 24 22
50 25 8
50 26 8
50 27 12
50 28 3
50 29 17
50 30 9
50 31 23
50 32 10
50 33 4
50 34 5
50 35 21
50 36 10
50 37 15
50 38 11
50 39 18
50 40 1
50 41 7
50 42 2
50 43 12
50 44 17
50 45 6
50 46 11
50 47 24
50 48 24
50 49 16
51 0 25
51 1 23
51 2 16
51 3 10
51 4 20
51 5 18
51 6 4
51 7 15
51 8 20
51 9 3
51 10 8
51 11 20
51 12 12
51 13 19
51 14 22
51 15 24
51 16 11
51 17 20
51 18 15
51 19 7
51 20 1
51 21 20
51 22 2
51 23 1
51 24 1
51 25 18
51 26 11
51 27 11
51 28 5
51 29 4
51 30 17
51 31 1
51 32 24
51 33 21
51 34 16
51 35 11
51 36 11
51 37 3
51 38 24
51 39 14
51 40 2
51 41 4
51 42 13
51 43 17
51 44 3
51 45 23
51 46 14
51 47 12
51 48 22
51 49 17
51 50 24
52 0 19
52 1 15
52 2 4
52 3 19
52 4 22
52 5 25
52 6 2
52 7 10
52 8 22
52 9 8
52 10 8
52 11 9
52 12 16
52 13 7
52 14 4
52 15 11
52 16 24
52 17 3
52 18 5
52 19 20
52 20 13
52 21 11
52 22 9
52 23 21
52 24 1
52 25 2
52 26 16
52 27 22
52 28 10
52 29 6
52 30 1
52 31 20
52 32 4
52 33 15
52 34 8
52 35 18
52 36 24
52 37 7
52 38 16
52 39 3
52 40 23
52 41 13
52 42 14
52 43 10
52 44 3
52 45 6
52 46 15
52 47 21
52 48 8
52 49 24
52 50 10
52 51 17
53 0 8
53 1 19
53 2 7
53 3 24
53 4 6
53 5 6
53 6 18
53 7 14
53 8 12
53 9 22
53 10 22
53 11 5
53 12 8
53 13 24
53 14 11
53 15 19
53 16 21
53 17 21
53 18 15
53 19 25
53 20 10
53 21 18
53 22 22
53 23 6
53 24 4
53 25 21
53 26 15
53 27 24
53 28 5
53 29 21
53 30 6
53 31 13
53 32 3
53 33 17
53 34 25
53 35 25
53 36 1
53 37 13
53 38 1
53 39 25
53 40 4
53 41 24
53 42 6
53 43 1
53 44 10
53 45 9
53 46 1
53 47 2
53 48 4
53 49 14
53 50 23
53 51 18
53 52 10
54 0 25
54 1 21
54 2 12
54 3 22
54 4 23
54 5 2
54 6 8
54 7 14
54 8 6
54 9 21
54 10 3
54 11 1
54 12 20
54 13 14
54 14 21
54 15 7
54 16 5
54 17 8
54 18 6
54 19 5
54 20 16
54 21 24
54 22 7
54 23 11
54 24 8
54 25 13
54 26 9
54 27 12
54 28 7
54 29 25
54 30 3
54 31 22
54 32 22
54 33 23
54 34 23
54 35 18
54 36 11
54 37 24
54 38 23
54 39 1
54 40 16
54 41 15
54 42 8
54 43 22
54 44 19
54 45 19
54 46 3
54 47 10
54 48 1
54 49 16
54 50 8
54 51 12
54 52 3
54 53 8
55 0 22
55 1 3
55 2 8
55 3 23
55 4 24
55 5 15
55 6 23
55 7 6
55 8 14
55 9 6
55 10 10
55 11 13
55 12 25
55 13 21
55 14 11
55 15 23
55 16 16
55 17 18
55 18 17
55 19 21
55 20 6
55 21 13
55 22 8
55 23 21
55 24 15
55 25 6
55 26 10
55 27 7
55 28 4
55 29 12
55 30 22
55 31 14
55 32 6
55 33 7
55 34 25
55 35 12
55 36 3
55 37 15
55 38 19
55 39 21
55 40 23
55 41 4
55 42 7
55 43 10
55 44 15
55 45 23
55 46 11
55 47 25
55 48 3
55 49 19
55 50 3
55 51 12
55 52 11
55 53 24
55 54 20
56 0 2
56 1 4
56 2 16
56 3 11
56 4 5
56 5 24
56 6 1
56 7 23
56 8 19
56 9 5
56 10 22
56 11 11
56 12 13
56 13 23
56 14 4
56 15 15
56 16 8
56 17 22
56 18 1
56 19 2
56 20 10
56 21 11
56 22 23
56 23 8
56 24 10
56 25 3
56 26 1
56 27 4
56 28 18
56 29 1
56 30 16
56 31 24
56 32 11
56 33 3
56 34 1
56 35 4
56 36 21
56 37 8
56 38 24
56 39 16
56 40 6
56 41 3
56 42 5
56 43 25
56 44 20
56 45 18
56 46 11
56 47 18
56 48 7
56 49 25
56 50 21
56 51 11
56 52 5
56 53 5
56 54 10
56 55 17
57 0 22
57 1 14
57 2 23
57 3 14
57 4 16
57 5 21
57 6 6
57 7 6
57 8 6
57 9 2
57 10 6
57 11 20
57 12 16
57 13 6
57 14 18
57 15 8
57 16 10
57 17 6
57 18 24
57 19 20
57 20 8
57 21 3
57 22 15
57 23 7
57 24 23
57 25 25
57 26 15
57 27 2
57 28 20
57 29 15
57 30 15
57 31 24
57 32 15
57 33 17
57 34 19
57 35 20
57 36 23
57 37 12
57 38 10
57 39 25
57 40 22
57 41 12
57 42 1
57 43 19
57 44 21
57 45 11
57 46 2
57 47 3
57 48 10
57 49 18
57 50 15
57 51 17
57 52 1
57 53 5
57 54 15
57 55 8
57 56 23
58 0 17
58 1 4
58 2 4
58 3 6
58 4 16
58 5 19
58 6 13
58 7 19
58 8 8
58 9 15
58 10 4
58 11 10
58 12 18
58 13 6
58 14 14
58 15 10
58 16 11
58 17 19
58 18 21
58 19 1
58 20 10
58 21 18
58 22 4
58 23 16
58 24 19
58 25 5
58 26 13
58 27 12
58 28 14
58 29 17
58 30 1
58 31 23
58 32 7
58 33 22
58 34 5
58 35 7
58 36 16
58 37 25
58 38 21
58 39 5
58 40 22
58 41 22
58 42 25
58 43 21
58 44 11
58 45 2
58 46 10
58 47 4
58 48 3
58 49 3
58 50 9
58 51 21
58 52 18
58 53 25
58 54 20
58 55 13
58 56 21
58 57 25
59 0 5
59 1 7
59 2 18
59 3 3
59 4 19
59 5 4
59 6 15
59 7 4
59 8 10
59 9 3
59 10 14
59 11 19
59 12 18
59 13 3
59 14 17
59 15 1
59 16 21
59 17 12
59 18 23
59 19 2
59 20 9
59 21 13
59 22 17
59 23 17
59 24 12
59 25 14
59 26 24
59 27 13
59 28 20
59 29 4
59 30 20
59 31 2
59 32 21
59 33 24
59 34 23
59 35 24
59 36 7
59 37 6
59 38 3
59 39 5
59 40 19
59 41 22
59 42 1
59 43 17
59 44 9
59 45 17
59 46 25
59 47 7
59 48 13
59 49 21
59 50 21
59 51 1
59 52 18
59 53 12
59 54 16
59 55 16
59 56 3
59 57 23
59 58 2
